12 66
1 2 3
1 3 2
1 4 1
1 5 3
1 6 5
1 7 5
1 8 2
1 9 5
1 10 4
1 11 1
1 12 3
2 3 3
2 4 2
2 5 3
2 6 5
2 7 5
2 8 5
2 9 3
2 10 4
2 11 2
2 12 1
3 4 3
3 5 4
3 6 5
3 7 3
3 8 3
3 9 3
3 10 2
3 11 2
3 12 2
4 5 1
4 6 4
4 7 1
4 8 1
4 9 4
4 10 5
4 11 1
4 12 4
5 6 3
5 7 2
5 8 4
5 9 2
5 10 3
5 11 3
5 12 3
6 7 1
6 8 3
6 9 5
6 10 4
6 11 2
6 12 5
7 8 2
7 9 1
7 10 4
7 11 4
7 12 4
8 9 5
8 10 1
8 11 4
8 12 2
9 10 5
9 11 5
9 12 2
10 11 5
10 12 3
11 12 2
